(set-logic LIA)
(synth-fun next ((brake Int) (distance Int) (speed Int) (throttle Int) (ignition Bool) (time Int) ) Int
	((Start Int) (Var Int) (StartBool Bool))
	((Start Int (
				 1
				 3
				 4
				 5
				 (ite StartBool Start Start)))

	(Var Int (
			 0
			 1
			 2
			 3
			 4
			 5
			 12
			 18
			 339
			 830
			 brake
			 distance
			 speed
			 throttle
			 time
			 (+ Var Var)						
			 (- Var Var)						
			 (* Var Var)))

	(StartBool Bool (
				 	 ignition
					(= Var Var)						
					(>= Var Var)						
					(<= Var Var)						
					(and StartBool StartBool)			
					(or  StartBool StartBool)				
					(not StartBool)))))

(constraint (= (next 0 0 0 0 true 1181 ) 4))
(constraint (= (next 0 1 20 8 true 415 ) 5))
(constraint (= (next 0 1 25 8 true 708 ) 3))
(constraint (= (next 0 10 27 4 true 1018 ) 1))

(check-synth)
